(declare-fun bvlambda_4_ ()Bool         )
(declare-fun a143 () (Array (_ BitVec 1) (_ BitVec 10)))
(assert
(let (($e13 (_ bv416 9)))
(let (($e18 (_ bv1018 10)))
(let (($e224 (concat $e13 false        )))
(let (($e225 (store a143 false $e224)))
(let (($e331                  bvlambda_4_ ))
(let (($e332 (store $e225 $e331        $e18 )))
(let (($e333 (select $e332 true       )))
(let (($e479 (select $e225 true        )))
(let (($e480 (   extract      $e479)))
(let (($e482      (= $e333        $e224 )         ))
                  (= (not   $e482) $e480)
                                                                                                                                                                                                                                                                                                                                                                                                                                                                                                                                                                                                                                                                                                                                                                                                                                                                                                                                                                                                                                                                                                                                                                                                                                                                                                                                                                                                                                                                                                                                                                                                                                                                                                                                                                                                                                                                                                                                                                                                                                                                                                                                                                                 ) ))                                                                                                                                                 )))                                                                                                         ))                                                                                                                                                                      )    )            )
